
List of user-set options:

                                    Name   Value                used
              acceptable_constr_viol_tol = 0.01                  yes
                         acceptable_iter = 1                     yes
               acceptable_obj_change_tol = 0.01                  yes
                          acceptable_tol = 0.01                  yes
                             alpha_for_y = full                  yes
                         constr_viol_tol = 1e-05                 yes
                        file_print_level = 5                     yes
                   hessian_approximation = limited-memory        yes
              limited_memory_max_history = 10                    yes
                           linear_solver = mumps                 yes
                                max_iter = 100                   yes
                             mu_strategy = adaptive              yes
                      nlp_scaling_method = none                  yes
                             output_file = opt_IPOPT.txt         yes
                       print_info_string = yes                   yes
                             print_level = 7                     yes
                      print_user_options = yes                   yes
                                recalc_y = yes                   yes
                                      sb = yes                   yes
                                     tol = 1e-05                 yes
This is Ipopt version 3.13.5, running with linear solver mumps.
NOTE: Other linear solvers might be more efficient (see Ipopt documentation).

Number of nonzeros in equality constraint Jacobian...:       19
Number of nonzeros in inequality constraint Jacobian.:      360
Number of nonzeros in Lagrangian Hessian.............:        0

Total number of variables............................:       19
                     variables with only lower bounds:        0
                variables with lower and upper bounds:       19
                     variables with only upper bounds:        0
Total number of equality constraints.................:        1
Total number of inequality constraints...............:       20
        inequality constraints with only lower bounds:        0
   inequality constraints with lower and upper bounds:       20
        inequality constraints with only upper bounds:        0

iter    objective    inf_pr   inf_du lg(mu)  ||d||  lg(rg) alpha_du alpha_pr  ls
   0  3.3115151e-01 2.31e-01 1.02e-01   0.0 0.00e+00    -  0.00e+00 0.00e+00   0 y
   1  3.2828432e-01 6.90e-02 4.41e-01  -1.4 1.34e-01    -  8.27e-01 1.00e+00f  1  sigma=4.71e-02 qf=12
